c generated by sgen
c see http://www.cs.qub.ac.uk/~i.spence/sgen
p cnf 101 212
-2 -3 -4 0
-1 -3 -4 0
-1 -2 -4 0
-1 -2 -3 0
-6 -7 -8 0
-5 -7 -8 0
-5 -6 -8 0
-5 -6 -7 0
-10 -11 -12 0
-9 -11 -12 0
-9 -10 -12 0
-9 -10 -11 0
-14 -15 -16 0
-13 -15 -16 0
-13 -14 -16 0
-13 -14 -15 0
-18 -19 -20 0
-17 -19 -20 0
-17 -18 -20 0
-17 -18 -19 0
-22 -23 -24 0
-21 -23 -24 0
-21 -22 -24 0
-21 -22 -23 0
-26 -27 -28 0
-25 -27 -28 0
-25 -26 -28 0
-25 -26 -27 0
-30 -31 -32 0
-29 -31 -32 0
-29 -30 -32 0
-29 -30 -31 0
-34 -35 -36 0
-33 -35 -36 0
-33 -34 -36 0
-33 -34 -35 0
-38 -39 -40 0
-37 -39 -40 0
-37 -38 -40 0
-37 -38 -39 0
-42 -43 -44 0
-41 -43 -44 0
-41 -42 -44 0
-41 -42 -43 0
-46 -47 -48 0
-45 -47 -48 0
-45 -46 -48 0
-45 -46 -47 0
-50 -51 -52 0
-49 -51 -52 0
-49 -50 -52 0
-49 -50 -51 0
-54 -55 -56 0
-53 -55 -56 0
-53 -54 -56 0
-53 -54 -55 0
-58 -59 -60 0
-57 -59 -60 0
-57 -58 -60 0
-57 -58 -59 0
-62 -63 -64 0
-61 -63 -64 0
-61 -62 -64 0
-61 -62 -63 0
-66 -67 -68 0
-65 -67 -68 0
-65 -66 -68 0
-65 -66 -67 0
-70 -71 -72 0
-69 -71 -72 0
-69 -70 -72 0
-69 -70 -71 0
-74 -75 -76 0
-73 -75 -76 0
-73 -74 -76 0
-73 -74 -75 0
-78 -79 -80 0
-77 -79 -80 0
-77 -78 -80 0
-77 -78 -79 0
-82 -83 -84 0
-81 -83 -84 0
-81 -82 -84 0
-81 -82 -83 0
-86 -87 -88 0
-85 -87 -88 0
-85 -86 -88 0
-85 -86 -87 0
-90 -91 -92 0
-89 -91 -92 0
-89 -90 -92 0
-89 -90 -91 0
-94 -95 -96 0
-93 -95 -96 0
-93 -94 -96 0
-93 -94 -95 0
-97 -98 -99 0
-97 -98 -100 0
-97 -98 -101 0
-97 -99 -100 0
-97 -99 -101 0
-97 -100 -101 0
-98 -99 -100 0
-98 -99 -101 0
-98 -100 -101 0
-99 -100 -101 0
17 90 21 0
47 90 21 0
47 17 21 0
47 17 90 0
93 4 73 0
80 4 73 0
80 93 73 0
80 93 4 0
95 7 46 0
65 7 46 0
65 95 46 0
65 95 7 0
28 57 45 0
77 57 45 0
77 28 45 0
77 28 57 0
22 12 75 0
49 12 75 0
49 22 75 0
49 22 12 0
37 18 29 0
16 18 29 0
16 37 29 0
16 37 18 0
72 19 52 0
66 19 52 0
66 72 52 0
66 72 19 0
85 97 13 0
76 97 13 0
76 85 13 0
76 85 97 0
50 42 83 0
96 42 83 0
96 50 83 0
96 50 42 0
11 54 39 0
2 54 39 0
2 11 39 0
2 11 54 0
98 56 35 0
82 56 35 0
82 98 35 0
82 98 56 0
71 40 78 0
8 40 78 0
8 71 78 0
8 71 40 0
26 20 14 0
34 20 14 0
34 26 14 0
34 26 20 0
24 99 94 0
64 99 94 0
64 24 94 0
64 24 99 0
87 44 58 0
55 44 58 0
55 87 58 0
55 87 44 0
10 100 32 0
92 100 32 0
92 10 32 0
92 10 100 0
59 61 33 0
9 61 33 0
9 59 33 0
9 59 61 0
5 62 53 0
91 62 53 0
91 5 53 0
91 5 62 0
38 60 68 0
88 60 68 0
88 38 68 0
88 38 60 0
84 89 15 0
79 89 15 0
79 84 15 0
79 84 89 0
67 36 23 0
41 36 23 0
41 67 23 0
41 67 36 0
6 43 3 0
101 43 3 0
101 6 3 0
101 6 43 0
30 86 27 0
51 86 27 0
51 30 27 0
51 30 86 0
63 70 1 0
48 70 1 0
48 63 1 0
48 63 70 0
69 74 31 0
69 74 81 0
69 74 25 0
69 31 81 0
69 31 25 0
69 81 25 0
74 31 81 0
74 31 25 0
74 81 25 0
31 81 25 0
